
Gurobi 12.0.2 (mac64[arm]) logging started Fri Jun 13 17:29:43 2025

Set parameter LogFile to value "/Users/yurunfeng/Documents/GitHub/LRGTS-store-location/result/gurobi/snyder/150nodes/150-0.8-5.log"
Gurobi Optimizer version 12.0.2 build v12.0.2rc0 (mac64[arm] - Darwin 24.5.0 24F74)

CPU model: Apple M4
Thread count: 10 physical cores, 10 logical processors, using up to 10 threads

Non-default parameters:
TimeLimit  1200

Optimize a model with 3510600 rows, 6795450 columns and 32209486 nonzeros
Model fingerprint: 0xa6cf39ab
Variable types: 3397650 continuous, 3397800 integer (3397800 binary)
Coefficient statistics:
  Matrix range     [2e-01, 1e+00]
  Objective range  [9e+01, 8e+06]
  Bounds range     [1e+00, 1e+00]
  RHS range        [1e+00, 5e+00]
Found heuristic solution: objective 6.624322e+07
Presolve removed 22800 rows and 22650 columns (presolve time = 5s)...
Presolve removed 22800 rows and 22650 columns (presolve time = 10s)...
Presolve removed 45300 rows and 22650 columns (presolve time = 15s)...
Presolve removed 45300 rows and 22650 columns (presolve time = 21s)...
Presolve removed 45300 rows and 22650 columns (presolve time = 25s)...
Presolve removed 45300 rows and 22650 columns (presolve time = 30s)...
Presolve removed 45300 rows and 22650 columns (presolve time = 40s)...
Presolve removed 45300 rows and 22650 columns (presolve time = 45s)...
Presolve removed 45300 rows and 22650 columns (presolve time = 50s)...
Presolve removed 45300 rows and 22650 columns (presolve time = 80s)...
Presolve removed 45300 rows and 22650 columns (presolve time = 87s)...
Presolve removed 45300 rows and 22650 columns (presolve time = 90s)...
Presolve removed 45300 rows and 22650 columns
Presolve time: 91.70s
Presolved: 3465300 rows, 6772800 columns, 29019185 nonzeros
Variable types: 3375000 continuous, 3397800 integer (3397800 binary)
Deterministic concurrent LP optimizer: primal simplex, dual simplex, and barrier
Showing barrier log only...

Root barrier log...

Elapsed ordering time = 15s
Elapsed ordering time = 15s
Elapsed ordering time = 20s
Elapsed ordering time = 39s
Elapsed ordering time = 40s
Elapsed ordering time = 186s
Elapsed ordering time = 253s
Elapsed ordering time = 317s
Elapsed ordering time = 384s
Ordering time: 384.57s

Barrier performed 0 iterations in 489.85 seconds (297.27 work units)
Barrier solve interrupted - model solved by another algorithm

Concurrent spin time: 364.26s (can be avoided by choosing Method=3)

Solved with dual simplex

Root simplex log...

Iteration    Objective       Primal Inf.    Dual Inf.      Time
   37982    2.4799566e+06   0.000000e+00   0.000000e+00    490s

Root relaxation: objective 2.479957e+06, 37982 iterations, 395.78 seconds (69.60 work units)

    Nodes    |    Current Node    |     Objective Bounds      |     Work
 Expl Unexpl |  Obj  Depth IntInf | Incumbent    BestBd   Gap | It/Node Time

     0     0 2479956.65    0 3728 6.6243e+07 2479956.65  96.3%     -  506s
H    0     0                    3960290.4491 2479956.65  37.4%     -  587s
H    0     0                    3159402.5377 2479956.65  21.5%     -  710s
H    0     0                    3126757.3853 2479956.65  20.7%     -  754s
     0     0 2523054.98    0 6802 3126757.39 2523054.98  19.3%     - 1030s

Cutting planes:
  Cover: 2
  MIR: 126
  Flow cover: 550
  RLT: 29

Explored 1 nodes (82065 simplex iterations) in 1201.38 seconds (1302.29 work units)
Thread count was 10 (of 10 available processors)

Solution count 4: 3.12676e+06 3.1594e+06 3.96029e+06 6.62432e+07 

Time limit reached
Best objective 3.126757385337e+06, best bound 2.523056196065e+06, gap 19.3076%
